10J3M/DAT/10J3MNTL-18.dat
10 3
24.9054 24.9054
16.558 16.558
15.6202 15.6202
27.3559 27.3559
23.5359 23.5359
25.3291 25.3291
24.0263 24.0263
20.5185 20.5185
31.7512 31.7512
22.2138 22.2138
57.9535