10J3M/SOL/10J3MNTL-18.sol
solution status: optimal solution found
objective value:                               66.114
x#1#3                                               1 	(obj:0)
x#2#1                                               1 	(obj:0)
x#3#1                                               1 	(obj:0)
x#4#1                                               1 	(obj:0)
x#5#2                                               1 	(obj:0)
x#6#2                                               1 	(obj:0)
x#7#2                               0.335901547241037 	(obj:0)
x#7#3                               0.128157135552455 	(obj:0)
x#9#3                                               1 	(obj:0)
x#10#1                             0.0484955517415778 	(obj:0)
z                                              66.114 	(obj:1)
